2003762
0 6 35812
6 8 126907
8 11 50021
11 5 255761
5 9 253562
9 15 21150
15 3 223220
3 18 238489
18 14 105166
14 7 67784
7 13 61569
13 17 103707
17 4 90145
4 19 53722
19 10 34792
10 12 112236
12 16 27808
16 2 20583
2 1 14475
1 0 106843
